root_relax = 155.25
QCR_time = 8.1351
opt = true
obj_val = 155.0
solved_time = 0.6296
explored_nodes = 70798
to value "./res/Gurobi/QCR_QP/bcc70529.txt"
Set parameter Presolve to value 0
Set parameter AggFill to value -1
Set parameter Aggregate to value 0
Set parameter Heuristics to value 0
Set parameter LPWarmStart to value 0
Set parameter NLPHeur to value 0
Set parameter NoRelHeurTime to value 0
Set parameter PreCrush to value 0
Set parameter PreDepRow to value 0
Set parameter PreDual to value 0
Set parameter PrePasses to value -1
Set parameter RINS to value 0
Set parameter Symmetry to value 0
Set parameter PreQLinearize to value 0
Set parameter NonConvex to value 0

Gurobi 12.0.0 (linux64) logging started Thu Aug 14 19:10:57 2025

Set parameter LogFile to value "./res/Gurobi/QCR_QP/bcc70529.txt"
Set parameter PreCrush to value 0
Set parameter PrePasses to value -1
Set parameter AggFill to value -1
Set parameter NoRelHeurTime to value 0
Set parameter NLPHeur to value 0
Set parameter NonConvex to value 0
Set parameter LPWarmStart to value 0
Set parameter PreDepRow to value 0
Set parameter Symmetry to value 0
Set parameter Presolve to value 0
Gurobi Optimizer version 12.0.0 build v12.0.0rc1 (linux64 - "Debian GNU/Linux 12 (bookworm)")

CPU model: Intel(R) Xeon(R) CPU E5-2650 v3 @ 2.30GHz, instruction set [SSE2|AVX|AVX2]
Thread count: 20 physical cores, 40 logical processors, using up to 20 threads

Non-default parameters:
TimeLimit  1800
LPWarmStart  0
Heuristics  0
RINS  0
NLPHeur  0
Symmetry  0
Aggregate  0
PreDual  0
NonConvex  0
PreDepRow  0
PreQLinearize  0
Presolve  0

Optimize a model with 0 rows, 33 columns and 0 nonzeros
Model fingerprint: 0x9940143c
Model has 309 quadratic objective terms
Variable types: 0 continuous, 33 integer (33 binary)
Coefficient statistics:
  Matrix range     [0e+00, 0e+00]
  Objective range  [2e+01, 3e+01]
  QObjective range [2e+00, 1e+01]
  Bounds range     [0e+00, 0e+00]
  RHS range        [0e+00, 0e+00]
Variable types: 0 continuous, 33 integer (33 binary)

Root relaxation: objective -1.552501e+02, 48 iterations, 0.00 seconds (0.00 work units)

    Nodes    |    Current Node    |     Objective Bounds      |     Work
 Expl Unexpl |  Obj  Depth IntInf | Incumbent    BestBd   Gap | It/Node Time

     0     0 -155.25008    0   33          - -155.25008      -     -    0s
     0     0 -155.25005    0   33          - -155.25005      -     -    0s
     0     2 -155.25005    0   33          - -155.25005      -     -    0s
*  267  1068              25    -155.0000000 -155.25005  0.16%   2.1    0s

Explored 70798 nodes (149641 simplex iterations) in 0.63 seconds (0.25 work units)
Thread count was 20 (of 40 available processors)

Solution count 1: -155 

Optimal solution found (tolerance 1.00e-04)
Best objective -1.550000000000e+02, best bound -1.550000218264e+02, gap 0.0000%

User-callback calls 141720, time in user-callback 0.02 sec
